RT is False
Default write of storage_offers_DA.csv just to have a file (but constraint should be inactive)
Reading model...
...model read.
creating competitive generators file...
...competitive generators recorded.
Loading data...
.. day-ahead data with real-time VRE data read.
Compiling instance...
...instance created.
Creating Offer Mitigation (model will solve as dispatch if TRUE)...
NOTE: storage offers will not be mitigated
...storage offer mitigation file created
Converting model to MPEC...
...converted
NOTE: initial MIP solve with only storage competitive to get feasible solution
Solving...

Welcome to IBM(R) ILOG(R) CPLEX(R) Interactive Optimizer 12.9.0.0
  with Simplex, Mixed Integer & Barrier Optimizers
5725-A06 5725-A29 5724-Y48 5724-Y49 5724-Y54 5724-Y55 5655-Y21
Copyright IBM Corp. 1988, 2019.  All Rights Reserved.

Type 'help' for a list of available commands.
Type 'help' followed by a command name for more
information on commands.

CPLEX> Logfile 'cplex.log' closed.
Logfile 'C:\Users\llavin\Desktop\test919\logs\tmpuo261xw5.cplex.log' open.
CPLEX> New value for parallel optimization mode: -1
CPLEX> New value for mixed integer optimality gap tolerance: 0.01
CPLEX> New value for integrality tolerance: 1e-09
CPLEX> New value for feasibility tolerance: 0.1
CPLEX> New value for deterministic time limit in ticks: 100000
CPLEX> Problem 'C:\Users\llavin\Desktop\test919\logs\tmpqqhnswui.pyomo.lp' read.
Read time = 0.23 sec. (13.86 ticks)
CPLEX> Problem name         : C:\Users\llavin\Desktop\test919\logs\tmpqqhnswui.pyomo.lp
Objective sense      : Maximize
Variables            :   53321  [Nneg: 1,  Box: 21806,  Free: 4416,
                                 Binary: 27098]
Objective nonzeros   :    8980
Linear constraints   :  122164  [Less: 40983,  Greater: 58612,  Equal: 22569]
  Nonzeros           :  288505
  RHS nonzeros       :   66982

Variables            : Min LB: -5000.000        Max UB: 1000000.       
Objective nonzeros   : Min   : 0.4000000        Max   : 802.0000       
Linear constraints   :
  Nonzeros           : Min   : 0.4000000        Max   : 1000000.       
  RHS nonzeros       : Min   : 0.4000000        Max   : 1000000.       
CPLEX> CPXPARAM_Parallel                                -1
CPXPARAM_Simplex_Tolerances_Feasibility          0.10000000000000001
CPXPARAM_DetTimeLimit                            100000
CPXPARAM_MIP_Tolerances_MIPGap                   0.01
CPXPARAM_MIP_Tolerances_Integrality              1.0000000000000001e-09
Tried aggregator 3 times.
MIP Presolve eliminated 88065 rows and 18921 columns.
MIP Presolve added 3378 rows and 0 columns.
MIP Presolve modified 23262 coefficients.
Aggregator did 12880 substitutions.
Reduced MIP has 24597 rows, 20964 columns, and 68911 nonzeros.
Reduced MIP has 8295 binaries, 0 generals, 0 SOSs, and 0 indicators.
Presolve time = 0.30 sec. (176.25 ticks)
Probing fixed 424 vars, tightened 2858 bounds.
Probing time = 1.28 sec. (884.56 ticks)
Tried aggregator 2 times.
MIP Presolve eliminated 956 rows and 858 columns.
MIP Presolve modified 2190 coefficients.
Aggregator did 45 substitutions.
Reduced MIP has 23596 rows, 20061 columns, and 65996 nonzeros.
Reduced MIP has 7867 binaries, 0 generals, 0 SOSs, and 0 indicators.
Presolve time = 0.09 sec. (68.75 ticks)
Probing time = 0.03 sec. (15.60 ticks)
Clique table members: 6282.
MIP emphasis: balance optimality and feasibility.
MIP search method: dynamic search.
Parallel mode: opportunistic, using up to 32 threads.
Root relaxation solution time = 0.41 sec. (508.46 ticks)

        Nodes                                         Cuts/
   Node  Left     Objective  IInf  Best Integer    Best Bound    ItCnt     Gap

      0     0     3469.2136   837                   3469.2136     6560         
      0     0     3469.0527    28                    Cuts: 27     6565         
      0     0     3469.0527    25                    Cuts: 19     6569         
      0     0     3469.0527    24                    Cuts: 15     6570         
      0     0     3469.2136    11                     Cuts: 9     6570         
      0     2     3469.2136    11                 Impl Bds: 1     6570         
Elapsed time = 8.89 sec. (4842.29 ticks, tree = 0.02 MB, solutions = 9)
*    29+   64                        -4331.8147     3377.5823           177.97%
    542   128    -3094.8584     4    -3147.8661     3377.5823     7826  207.30%
    890   194        cutoff           3035.3439     3377.5823     8291   11.28%
   1209    36     3376.3850     4     3035.3439     3377.5823     8428   11.28%
   1462   124     3375.7864     3     3035.3439     3377.5823     8594   11.28%
   1652   212        cutoff           3035.3439     3377.5823     8865   11.28%
   1830   206     3161.7335     8     3035.3439     3377.5823     8818   11.28%
   1985   213     3377.5823     1     3035.3439     3377.5823     8935   11.28%
   2124   221        cutoff           3035.3439     3377.5823     9106   11.28%
   2594   221        cutoff           3035.3439     3377.5823     9215   11.28%
Elapsed time = 20.92 sec. (7747.85 ticks, tree = 0.67 MB, solutions = 23)
   3224   239     3160.9493     4     3035.3439     3377.5823     9618   11.28%
   4978   284     3139.5126     6     3035.3439     3377.5823     9963   11.28%
   6090  1204        cutoff           3035.3439     3377.5823    16722   11.28%
   6635  1240        cutoff           3035.3439     3377.5823    16885   11.28%
   7035  1312     3142.2352     1     3035.3439     3377.5823    17353   11.28%
   7394  1338     3131.4600     1     3035.3439     3377.5823    17707   11.28%
   7800  1388     3182.6640     3     3035.3439     3377.5823    21855   11.28%
   8389  1389     3086.8018     5     3035.3439     3377.5823    18109   11.28%
   9472  1529     3355.0947     2     3035.3439     3377.2830    19341   11.27%
  10439  1486        cutoff           3035.3439     3377.2830    18965   11.27%
Elapsed time = 56.58 sec. (17302.14 ticks, tree = 7.30 MB, solutions = 23)
  11227  1519     3137.3781     6     3035.3439     3376.9837    19179   11.26%
  11829  1551     3162.4936     2     3035.3439     3376.9837    19455   11.26%
  12209  1743     3088.5776     1     3035.3439     3376.9837    28645   11.26%
  12567  1991     3039.6017     6     3035.3439     3376.9837    34264   11.26%
  12858  2018     3140.7039     1     3035.3439     3376.9837    34570   11.26%
  13084  1844        cutoff           3035.3439     3376.9837    33079   11.26%
  13225  2063     3322.2547     3     3035.3439     3376.9837    34874   11.26%
* 13238+ 2034                         3157.0164     3376.9837             6.97%
  13238  2044    infeasible           3157.0164     3375.7864    52025    6.93%
  15149   234     3303.8276    10     3157.0164     3374.8885    75419    6.90%
* 15757   225      integral     0     3303.8276     3374.5361    75424    2.14%
* 16119   267      integral     0     3342.4147     3374.5361    77256    0.96%
  17331   291     3161.2404     3     3342.4147     3374.5361    78371    0.96%
Elapsed time = 79.86 sec. (31655.08 ticks, tree = 1.96 MB, solutions = 25)

GUB cover cuts applied:  1
Clique cuts applied:  15
Cover cuts applied:  12
Implied bound cuts applied:  53
Flow cuts applied:  206
Mixed integer rounding cuts applied:  844
Gomory fractional cuts applied:  88

Root node processing (before b&c):
  Real time             =    7.00 sec. (4808.96 ticks)
Parallel b&c, 32 threads:
  Real time             =   73.72 sec. (27630.46 ticks)
  Sync time (average)   =    3.43 sec.
  Wait time (average)   =    0.18 sec.
                          ------------
Total (root+branch&cut) =   80.72 sec. (32439.42 ticks)

Solution pool: 25 solutions saved.

MIP - Integer optimal, tolerance (0.01/1e-06):  Objective =  3.3424147453e+03
Current MIP best bound =  3.3745361421e+03 (gap = 32.1214, 0.96%)
Solution time =   80.75 sec.  Iterations = 85244  Nodes = 17939 (3)
Deterministic time = 32439.57 ticks  (401.73 ticks/sec)

CPLEX> Incumbent solution written to file 'C:\Users\llavin\Desktop\test919\logs\tmpayyn2nbz.cplex.sol'.
CPLEX> NOTE: no warmstart specified for MIP iteration, default behavior is true
NOTE: resolving with all competitive generators using storage-only solution to warmstart
Solving...

Welcome to IBM(R) ILOG(R) CPLEX(R) Interactive Optimizer 12.9.0.0
  with Simplex, Mixed Integer & Barrier Optimizers
5725-A06 5725-A29 5724-Y48 5724-Y49 5724-Y54 5724-Y55 5655-Y21
Copyright IBM Corp. 1988, 2019.  All Rights Reserved.

Type 'help' for a list of available commands.
Type 'help' followed by a command name for more
information on commands.

CPLEX> Logfile 'cplex.log' closed.
Logfile 'C:\Users\llavin\Desktop\test919\logs\tmptwulbmoj.cplex.log' open.
CPLEX> New value for parallel optimization mode: -1
CPLEX> New value for mixed integer optimality gap tolerance: 0.01
CPLEX> New value for integrality tolerance: 1e-09
CPLEX> New value for feasibility tolerance: 0.1
CPLEX> New value for deterministic time limit in ticks: 100000
CPLEX> Problem 'C:\Users\llavin\Desktop\test919\logs\tmp6wa32w5n.pyomo.lp' read.
Read time = 0.23 sec. (13.88 ticks)
CPLEX> MIP start file 'C:\Users\llavin\Desktop\test919\logs\tmpckgifcvh.cplex.mst' read.
CPLEX> Problem name         : C:\Users\llavin\Desktop\test919\logs\tmp6wa32w5n.pyomo.lp
Objective sense      : Maximize
Variables            :   54041  [Nneg: 1,  Box: 22526,  Free: 4416,
                                 Binary: 27098]
Objective nonzeros   :    9700
Linear constraints   :  122164  [Less: 40983,  Greater: 58612,  Equal: 22569]
  Nonzeros           :  288505
  RHS nonzeros       :   66982

Variables            : Min LB: -5000.000        Max UB: 1000000.       
Objective nonzeros   : Min   : 0.4000000        Max   : 802.0000       
Linear constraints   :
  Nonzeros           : Min   : 0.4000000        Max   : 1000000.       
  RHS nonzeros       : Min   : 0.4000000        Max   : 1000000.       
CPLEX> CPXPARAM_Parallel                                -1
CPXPARAM_Simplex_Tolerances_Feasibility          0.10000000000000001
CPXPARAM_DetTimeLimit                            100000
CPXPARAM_MIP_Tolerances_MIPGap                   0.01
CPXPARAM_MIP_Tolerances_Integrality              1.0000000000000001e-09
Warning:  No solution found from 1 MIP starts.
Retaining values of one MIP start for possible repair.
Tried aggregator 3 times.
MIP Presolve eliminated 88065 rows and 19641 columns.
MIP Presolve added 3378 rows and 0 columns.
MIP Presolve modified 23262 coefficients.
Aggregator did 12880 substitutions.
Reduced MIP has 24597 rows, 20964 columns, and 68911 nonzeros.
Reduced MIP has 8295 binaries, 0 generals, 0 SOSs, and 0 indicators.
Presolve time = 0.30 sec. (176.62 ticks)
Probing fixed 424 vars, tightened 2858 bounds.
Probing time = 1.22 sec. (884.56 ticks)
Tried aggregator 2 times.
MIP Presolve eliminated 956 rows and 858 columns.
MIP Presolve modified 2190 coefficients.
Aggregator did 45 substitutions.
Reduced MIP has 23596 rows, 20061 columns, and 65996 nonzeros.
Reduced MIP has 7867 binaries, 0 generals, 0 SOSs, and 0 indicators.
Presolve time = 0.11 sec. (68.75 ticks)
Probing time = 0.05 sec. (15.60 ticks)
Clique table members: 6282.
MIP emphasis: balance optimality and feasibility.
MIP search method: dynamic search.
Parallel mode: opportunistic, using up to 32 threads.
Root relaxation solution time = 0.41 sec. (508.46 ticks)

        Nodes                                         Cuts/
   Node  Left     Objective  IInf  Best Integer    Best Bound    ItCnt     Gap

      0     0     3469.2136   837                   3469.2136     6560         
      0     0     3469.0527    28                    Cuts: 27     6565         
      0     0     3469.0527    25                    Cuts: 19     6569         
      0     0     3469.0527    24                    Cuts: 15     6570         
      0     0     3469.2136    11                     Cuts: 9     6570         
Repair heuristic found nothing.
      0     2     3469.2136    11                 Impl Bds: 1     6570         
Elapsed time = 8.95 sec. (4903.84 ticks, tree = 0.02 MB, solutions = 10)
*    30+   56                        -3147.8661     3377.5823           207.30%
    563    97     3162.4459     1    -3147.8661     3377.5823     7629  207.30%
    948   415        cutoff          -3147.8661     3377.5823     8692  207.30%
   1131   447     3162.1465     2    -3147.8661     3377.5823     8772  207.30%
   1303   456        cutoff          -3147.8661     3377.5823     8807  207.30%
   1435   482        cutoff          -3147.8661     3377.5823     8928  207.30%
   1554   483        cutoff          -3147.8661     3377.5823     9030  207.30%
   1657   483        cutoff          -3147.8661     3377.5823     9033  207.30%
   1749   482        cutoff          -3147.8661     3377.5823     9086  207.30%
   2076   485    infeasible          -3147.8661     3377.5823     9246  207.30%
Elapsed time = 18.89 sec. (7840.04 ticks, tree = 1.71 MB, solutions = 21)
   2382   482     1100.5642     1    -3147.8661     3377.5823     9338  207.30%
   3072   503     3162.4459     3    -3147.8661     3377.5823     9498  207.30%
*  3114   537      integral     0    -2269.9330     3377.5823     9700  248.80%
   4185   728     -265.0861     1    -2269.9330     3377.5823    11125  248.80%
   4957   920        cutoff          -2269.9330     3377.5823    12360  248.80%
   5857  1128      425.7228     5      791.5307     3377.5823    13464  326.72%
   6677  1560     2676.3409     2      791.5307     3377.5823    15449  326.72%
   7620  1350     1255.7481     2      791.5307     3377.5823    14485  326.72%
   8493  1455     3142.2352     1      791.5307     3377.5823    15035  326.72%
   9120  1607     3136.5707     4      791.5307     3377.5823    18139  326.72%
   9712  1625     3161.5479     5      791.5307     3377.5823    18345  326.72%
Elapsed time = 44.44 sec. (17389.55 ticks, tree = 7.50 MB, solutions = 25)
*  9741  1658      integral     0     1725.8100     3377.5823    18903   95.71%
  10085  2395     1707.0098     4     1725.8100     3377.5823    23542   95.71%
  10210  2200      977.9363     1     1725.8100     3377.5823    22186   95.71%
  10312  2395     1707.0098     4     1725.8100     3377.5823    23549   95.71%
  10379  2374        cutoff           1725.8100     3377.5823    23784   95.71%
  10422  2433     2553.6827     1     1725.8100     3377.5823    24043   95.71%
  10440  2831    infeasible           1725.8100     3376.8058    35410   95.66%
  11527    65     3173.6012     8     1725.8100     3375.1877    35921   95.57%
  12842   479     2104.5672     3     1725.8100     3374.8885    40464   95.55%
  14483   507     2475.7088     2     3112.7813     3374.8885    40581    8.42%
  16572   714     3239.1584     1     3130.0133     3374.8885    46203    7.82%
Elapsed time = 81.22 sec. (30938.00 ticks, tree = 2.32 MB, solutions = 29)
  17929  1207        cutoff           3148.9985     3374.8885    62466    7.17%
  20257  1354    infeasible           3148.9985     3281.1692    89373    4.20%
  22676  1372     3240.0302     2     3193.8777     3252.1768    83496    1.83%
  23873   195     3254.9745     5     3193.8777     3252.1768   107345    1.83%
  24536   300        cutoff           3193.8777     3252.1768   112960    1.83%
  25123   353        cutoff           3193.8777     3252.1768   113570    1.83%
  25706   365        cutoff           3193.8777     3252.1768   113684    1.83%
  26209   558        cutoff           3193.8777     3252.1768   115555    1.83%
  26652   535     3246.8158     1     3193.8777     3252.1768   115414    1.83%
  27068   708        cutoff           3193.8777     3252.1768   116601    1.83%
Elapsed time = 126.06 sec. (40483.42 ticks, tree = 3.41 MB, solutions = 32)
  27468   952        cutoff           3193.8777     3252.1768   118228    1.83%
  27833   826     3246.8158     2     3193.8777     3252.1768   117335    1.83%
  28209   913     3248.4193     3     3193.8777     3252.1768   117913    1.83%
  28577  1022        cutoff           3193.8777     3252.1768   118566    1.83%
  28944  1145     3252.1767     4     3193.8777     3252.1768   119266    1.83%
  29294  1283     3230.4975     6     3193.8777     3252.1768   119844    1.83%
  29634  1180        cutoff           3193.8777     3252.1768   119415    1.83%
  29962  1270     3252.1767     3     3193.8777     3252.1768   119794    1.83%
  30255  1319     3252.1767     4     3193.8777     3252.1768   120064    1.83%
  30523  1594     3252.1767     6     3193.8777     3252.1768   121171    1.83%
Elapsed time = 153.75 sec. (50044.27 ticks, tree = 7.13 MB, solutions = 32)
  30791  1479        cutoff           3193.8777     3252.1768   120652    1.83%
  31038  1579        cutoff           3193.8777     3252.1768   121104    1.83%
  31301  1761     3252.1767     3     3193.8777     3252.1768   121894    1.83%
  31535  1618        cutoff           3193.8777     3252.1768   121273    1.83%
  31795  1670     3277.4766     4     3193.8777     3252.1768   121517    1.83%
  32079  1748     3252.1767     5     3193.8777     3252.1768   121873    1.83%
  32363  1714     3248.4193     8     3193.8777     3252.1768   121719    1.83%
  32642  2111     3252.1767     2     3193.8777     3252.1768   124400    1.83%
  32896  2098     3252.1767     3     3193.8777     3252.1768   124266    1.83%
  33112  2029        cutoff           3193.8777     3252.1768   123979    1.83%
Elapsed time = 182.06 sec. (59603.21 ticks, tree = 9.05 MB, solutions = 32)
  33304  2078        cutoff           3193.8777     3252.1768   124110    1.83%
  33466  2136        cutoff           3193.8777     3252.1768   124562    1.83%
  33632  2134     3252.1767     2     3193.8777     3252.1768   124580    1.83%
  33802  2078        cutoff           3193.8777     3252.1768   124080    1.83%
  33940  2122     3277.4766     2     3193.8777     3252.1768   124442    1.83%
  34052  2098        cutoff           3193.8777     3252.1768   128077    1.83%
  34162  2134        cutoff           3193.8777     3252.1768   127104    1.83%
  34271  1758        cutoff           3193.8777     3252.1768   134242    1.83%
  34388  1561        cutoff           3193.8777     3252.1768   137354    1.83%
  34542  1457        cutoff           3193.8777     3252.1768   138756    1.83%
Elapsed time = 204.70 sec. (69200.41 ticks, tree = 6.11 MB, solutions = 32)
  34699  1487        cutoff           3193.8777     3252.1768   138495    1.83%
  34876  1463     3277.4766     1     3193.8777     3252.1768   138771    1.83%
  35070  1733     3277.4766     2     3193.8777     3252.1768   134661    1.83%
  35265  1848     3277.4766     1     3193.8777     3252.1768   133252    1.83%
  35481  1697        cutoff           3193.8777     3252.1768   134953    1.83%
  35735  1661     3277.4766     2     3193.8777     3252.1768   135694    1.83%
  35984  1526     3277.4766     2     3193.8777     3252.1768   138145    1.83%
  36202  1664     3277.4766     2     3193.8777     3252.1768   135708    1.83%
  36423  1422     3277.4766     2     3193.8777     3252.1768   139602    1.83%
  36634  1794     3277.4766     2     3193.8777     3252.1768   142766    1.83%
Elapsed time = 220.83 sec. (78763.65 ticks, tree = 8.91 MB, solutions = 32)
  36850  1494        cutoff           3193.8777     3252.1768   138546    1.83%
  37058  1470     3277.4766     2     3193.8777     3252.1768   138822    1.83%
  37264  1416        cutoff           3193.8777     3252.1768   139588    1.83%
  37495  1756     3277.4766     2     3193.8777     3252.1768   142668    1.83%
  37702  1481     3252.1767     6     3193.8777     3252.1768   140545    1.83%
  37908  1523     3277.4766     2     3193.8777     3252.1768   141801    1.83%
  38118  1998        cutoff           3193.8777     3252.1768   143830    1.83%
  38329  1693     3277.4766     1     3193.8777     3252.1768   142400    1.83%
  38536  1819     3277.4766     2     3193.8777     3252.1768   142868    1.83%
  38739  1871        cutoff           3193.8777     3252.1768   143107    1.83%
Elapsed time = 235.14 sec. (88350.97 ticks, tree = 9.11 MB, solutions = 32)
  38950  1732     3277.4766     2     3193.8777     3252.1768   142587    1.83%
  39164  1863     3277.4766     2     3193.8777     3252.1768   143078    1.83%
  39373  1861     3277.4766     2     3193.8777     3252.1768   143027    1.83%
  39556  1909        cutoff           3193.8777     3252.1768   143278    1.83%
  39745  1930     3277.4766     2     3193.8777     3252.1768   143411    1.83%
  39930  2031     3277.4766     1     3193.8777     3252.1768   144114    1.83%
  40145  2153     3277.4766     3     3193.8777     3252.1768   145705    1.83%
  40292  2048        cutoff           3193.8777     3252.1768   144229    1.83%
  40406  2110     3277.4766     2     3193.8777     3252.1768   144583    1.83%

GUB cover cuts applied:  8
Clique cuts applied:  8
Cover cuts applied:  25
Implied bound cuts applied:  50
Flow cuts applied:  96
Mixed integer rounding cuts applied:  39
Gomory fractional cuts applied:  57

Root node processing (before b&c):
  Real time             =    7.17 sec. (4874.72 ticks)
Parallel b&c, 32 threads:
  Real time             =  235.48 sec. (95432.80 ticks)
  Sync time (average)   =    4.38 sec.
  Wait time (average)   =    0.24 sec.
                          ------------
Total (root+branch&cut) =  242.66 sec. (100307.52 ticks)

Solution pool: 32 solutions saved.

MIP - Deterministic time limit exceeded, integer feasible:  Objective =  3.1938777371e+03
Current MIP best bound =  3.2521769874e+03 (gap = 58.2993, 1.83%)
Solution time =  242.67 sec.  Iterations = 148546  Nodes = 40672 (2246)
Deterministic time = 100307.68 ticks  (413.35 ticks/sec)

CPLEX> Incumbent solution written to file 'C:\Users\llavin\Desktop\test919\logs\tmprtgluqrb.cplex.sol'.
CPLEX> Exporting results... 
